<number of tasks>
45

<cycle time>
69

<task times>
1 9
2 9
3 10
4 10
5 17
6 17
7 13
8 13
9 20
10 20
11 10
12 11
13 6
14 22
15 11
16 19
17 12
18 3
19 7
20 4
21 55
22 14
23 27
24 29
25 26
26 6
27 5
28 24
29 4
30 5
31 7
32 4
33 15
34 3
35 7
36 9
37 4
38 7
39 5
40 4
41 21
42 12
43 6
44 5
45 5

<precedence relations>
1,3
1,7
2,4
2,8
3,5
4,6
5,9
6,10
7,9
7,14
8,10
8,14
9,41
10,41
11,13
12,13
12,37
13,14
13,15
14,17
14,25
14,29
14,30
14,31
14,32
15,16
15,18
15,23
15,24
16,19
17,26
17,27
18,19
19,20
19,33
20,21
21,22
22,28
23,33
24,33
25,26
26,38
27,28
27,33
28,38
29,41
30,41
31,41
32,41
33,34
33,35
33,36
34,38
35,40
36,38
37,43
38,40
39,41
40,41
41,42
42,44
42,45

<setup times forward>
1,3:1
1,4:1
1,8:1
1,10:1
1,18:1
1,19:1
1,20:1
1,23:1
1,24:1
1,39:1
2,3:1
2,4:1
2,8:1
2,9:1
2,18:1
2,19:1
2,20:1
2,23:1
2,24:1
2,39:1
3,2:1
3,5:1
3,6:1
3,7:1
3,11:1
3,12:1
3,13:1
3,15:1
3,16:1
3,17:1
3,21:1
3,22:1
3,26:2
3,27:1
3,28:1
3,29:1
3,30:1
3,33:1
3,34:1
3,35:1
3,36:2
3,37:1
3,38:2
3,40:2
3,43:1
4,1:1
4,5:1
4,6:1
4,7:1
4,11:1
4,12:1
4,13:1
4,15:1
4,16:1
4,17:1
4,21:1
4,22:1
4,26:2
4,27:1
4,28:1
4,29:1
4,30:1
4,33:1
4,34:1
4,35:1
4,36:2
4,37:1
4,38:2
4,40:2
4,43:1
5,4:1
5,8:1
5,9:1
5,10:1
5,14:1
5,18:1
5,19:1
5,20:1
5,23:1
5,24:1
5,25:1
5,26:1
5,31:1
5,32:1
5,36:1
5,38:1
5,39:1
5,40:1
6,3:1
6,8:1
6,9:1
6,10:1
6,14:1
6,18:1
6,19:1
6,20:1
6,23:1
6,24:1
6,25:1
6,26:1
6,31:1
6,32:1
6,36:1
6,38:1
6,39:1
6,40:1
7,3:1
7,4:1
7,8:1
7,9:1
7,10:1
7,14:1
7,18:1
7,19:1
7,20:1
7,23:1
7,24:1
7,39:1
8,1:1
8,5:1
8,6:1
8,7:1
8,11:1
8,12:1
8,13:1
8,15:1
8,16:1
8,21:1
8,22:1
8,37:1
8,43:1
9,2:1
9,6:1
9,11:1
9,12:1
9,13:1
9,15:1
9,16:1
9,17:1
9,21:1
9,22:1
9,26:2
9,27:1
9,28:1
9,29:1
9,30:1
9,33:1
9,34:1
9,35:1
9,36:2
9,37:1
9,38:2
9,40:2
9,41:2
9,43:1
10,1:1
10,5:1
10,7:1
10,11:1
10,12:1
10,13:1
10,15:1
10,16:1
10,17:1
10,21:1
10,22:1
10,26:2
10,27:1
10,28:1
10,29:1
10,30:1
10,33:1
10,34:1
10,35:1
10,36:2
10,37:1
10,38:2
10,40:2
10,41:2
10,43:1
11,3:1
11,4:1
11,8:1
11,9:1
11,10:1
11,39:1
12,3:1
12,4:1
12,8:1
12,9:1
12,10:1
12,39:1
13,3:1
13,4:1
13,8:1
13,9:1
13,10:1
13,14:1
13,39:1
14,5:1
14,6:1
14,15:1
14,16:1
14,17:1
14,21:1
14,22:1
14,29:1
14,30:1
14,37:1
14,43:1
15,3:1
15,4:1
15,8:1
15,9:1
15,10:1
15,14:1
15,18:1
15,23:1
15,24:1
15,25:1
15,26:1
15,31:1
15,32:1
15,39:1
16,3:1
16,4:1
16,8:1
16,9:1
16,10:1
16,14:1
16,18:1
16,19:1
16,23:1
16,24:1
16,25:1
16,26:1
16,31:1
16,32:1
16,39:1
17,3:1
17,4:1
17,9:1
17,10:1
17,18:1
17,19:1
17,20:1
17,23:1
17,24:1
17,25:1
17,26:1
17,31:1
17,32:1
17,39:1
18,1:1
18,2:1
18,5:1
18,6:1
18,7:1
18,16:1
18,17:1
18,26:2
18,27:1
18,29:1
18,30:1
18,37:1
18,43:1
19,1:1
19,2:1
19,5:1
19,6:1
19,7:1
19,17:1
19,26:2
19,27:1
19,29:1
19,30:1
19,33:1
19,37:1
19,43:1
20,1:1
20,2:1
20,5:1
20,6:1
20,7:1
20,17:1
20,21:1
20,26:2
20,27:1
20,29:1
20,30:1
20,33:1
20,34:1
20,35:1
20,36:2
20,37:1
20,43:1
21,3:1
21,4:1
21,8:1
21,9:1
21,10:1
21,14:1
21,23:1
21,24:1
21,25:1
21,26:1
21,31:1
21,32:1
21,36:1
21,39:1
22,3:1
22,4:1
22,8:1
22,9:1
22,10:1
22,14:1
22,23:1
22,24:1
22,25:1
22,26:1
22,31:1
22,32:1
22,36:1
22,39:1
23,1:1
23,2:1
23,5:1
23,6:1
23,7:1
23,16:1
23,17:1
23,21:1
23,22:1
23,26:2
23,27:1
23,28:1
23,29:1
23,30:1
23,33:1
23,37:1
23,43:1
24,1:1
24,2:1
24,5:1
24,6:1
24,7:1
24,16:1
24,17:1
24,21:1
24,22:1
24,26:2
24,27:1
24,28:1
24,29:1
24,30:1
24,33:1
24,37:1
24,43:1
25,5:1
25,6:1
25,15:1
25,16:1
25,17:1
25,21:1
25,22:1
25,26:2
25,27:1
25,28:1
25,29:1
25,30:1
25,33:1
25,34:1
25,35:1
25,36:2
25,37:1
25,43:1
26,3:2
26,4:2
26,5:1
26,6:1
26,9:2
26,10:2
26,15:1
26,16:1
26,18:2
26,19:2
26,20:2
26,21:1
26,22:1
26,23:2
26,24:2
26,27:1
26,28:1
26,29:1
26,30:1
26,31:2
26,32:2
26,33:1
26,34:1
26,35:1
26,37:1
26,39:2
26,43:1
27,3:1
27,4:1
27,9:1
27,10:1
27,18:1
27,19:1
27,20:1
27,23:1
27,24:1
27,25:1
27,26:1
27,31:1
27,32:1
27,39:1
28,3:1
28,4:1
28,9:1
28,10:1
28,23:1
28,24:1
28,25:1
28,26:1
28,31:1
28,32:1
28,36:1
28,38:1
28,39:1
29,3:1
29,4:1
29,9:1
29,10:1
29,18:1
29,19:1
29,20:1
29,23:1
29,24:1
29,25:1
29,26:1
29,31:1
29,32:1
29,36:1
29,38:1
29,39:1
29,40:1
29,41:1
30,3:1
30,4:1
30,9:1
30,10:1
30,18:1
30,19:1
30,20:1
30,23:1
30,24:1
30,25:1
30,26:1
30,31:1
30,32:1
30,36:1
30,38:1
30,39:1
30,40:1
30,41:1
31,5:1
31,6:1
31,15:1
31,16:1
31,17:1
31,21:1
31,22:1
31,26:2
31,27:1
31,28:1
31,29:1
31,30:1
31,33:1
31,34:1
31,35:1
31,36:2
31,37:1
31,38:2
31,40:2
31,41:2
31,43:1
32,5:1
32,6:1
32,15:1
32,16:1
32,17:1
32,21:1
32,22:1
32,26:2
32,27:1
32,28:1
32,29:1
32,30:1
32,33:1
32,34:1
32,35:1
32,36:2
32,37:1
32,38:2
32,40:2
32,41:2
32,43:1
33,3:1
33,4:1
33,9:1
33,10:1
33,20:1
33,25:1
33,26:1
33,31:1
33,32:1
33,36:1
33,39:1
34,3:1
34,4:1
34,9:1
34,10:1
34,20:1
34,25:1
34,26:1
34,31:1
34,32:1
34,36:1
34,38:1
34,39:1
35,3:1
35,4:1
35,9:1
35,10:1
35,20:1
35,25:1
35,26:1
35,31:1
35,32:1
35,36:1
35,38:1
35,39:1
35,40:1
36,3:2
36,4:2
36,5:1
36,6:1
36,9:2
36,10:2
36,20:2
36,21:1
36,22:1
36,25:2
36,28:1
36,29:1
36,30:1
36,31:2
36,32:2
36,34:1
36,35:1
36,37:1
36,39:2
36,43:1
37,3:1
37,4:1
37,8:1
37,9:1
37,10:1
37,14:1
37,18:1
37,19:1
37,20:1
37,23:1
37,24:1
37,25:1
37,26:1
37,31:1
37,32:1
37,36:1
37,38:1
37,39:1
37,40:1
37,41:1
37,42:1
37,44:1
37,45:1
38,3:2
38,4:2
38,5:1
38,6:1
38,9:2
38,10:2
38,29:1
38,30:1
38,31:2
38,32:2
38,35:1
38,37:1
38,39:2
38,43:1
39,1:1
39,2:1
39,5:1
39,6:1
39,7:1
39,11:1
39,12:1
39,13:1
39,15:1
39,16:1
39,17:1
39,21:1
39,22:1
39,26:2
39,27:1
39,28:1
39,29:1
39,30:1
39,33:1
39,34:1
39,35:1
39,36:2
39,37:1
39,38:2
39,40:2
39,41:2
39,43:1
40,3:2
40,4:2
40,5:1
40,6:1
40,9:2
40,10:2
40,29:1
40,30:1
40,31:2
40,32:2
40,37:1
40,39:2
40,43:1
41,37:1
41,43:1
42,37:1
42,43:1
43,3:1
43,4:1
43,8:1
43,9:1
43,10:1
43,14:1
43,18:1
43,19:1
43,20:1
43,23:1
43,24:1
43,25:1
43,26:1
43,31:1
43,32:1
43,36:1
43,38:1
43,39:1
43,40:1
43,41:1
43,42:1
43,44:1
43,45:1
44,37:1
44,43:1
45,37:1
45,43:1

<setup times backward>
3,1:1
3,2:1
3,6:1
3,7:1
3,11:1
3,12:1
3,13:1
3,15:1
3,16:1
3,17:1
3,21:1
3,22:1
3,26:2
3,27:1
3,28:1
3,29:1
3,30:1
3,33:1
3,34:1
3,35:1
3,36:2
3,37:1
3,38:2
3,40:2
3,43:1
4,1:1
4,2:1
4,5:1
4,7:1
4,11:1
4,12:1
4,13:1
4,15:1
4,16:1
4,17:1
4,21:1
4,22:1
4,26:2
4,27:1
4,28:1
4,29:1
4,30:1
4,33:1
4,34:1
4,35:1
4,36:2
4,37:1
4,38:2
4,40:2
4,43:1
5,26:1
5,36:1
5,38:1
5,40:1
6,26:1
6,36:1
6,38:1
6,40:1
8,1:1
8,2:1
8,5:1
8,6:1
8,7:1
8,11:1
8,12:1
8,13:1
8,15:1
8,16:1
8,21:1
8,22:1
8,37:1
8,43:1
9,1:1
9,2:1
9,5:1
9,6:1
9,7:1
9,11:1
9,12:1
9,13:1
9,15:1
9,16:1
9,17:1
9,21:1
9,22:1
9,26:2
9,27:1
9,28:1
9,29:1
9,30:1
9,33:1
9,34:1
9,35:1
9,36:2
9,37:1
9,38:2
9,40:2
9,43:1
10,1:1
10,2:1
10,5:1
10,6:1
10,7:1
10,11:1
10,12:1
10,13:1
10,15:1
10,16:1
10,17:1
10,21:1
10,22:1
10,26:2
10,27:1
10,28:1
10,29:1
10,30:1
10,33:1
10,34:1
10,35:1
10,36:2
10,37:1
10,38:2
10,40:2
10,43:1
14,1:1
14,2:1
14,5:1
14,6:1
14,7:1
14,11:1
14,12:1
14,13:1
14,15:1
14,16:1
14,21:1
14,22:1
14,37:1
14,43:1
15,26:1
16,26:1
18,1:1
18,2:1
18,5:1
18,6:1
18,7:1
18,11:1
18,12:1
18,13:1
18,15:1
18,16:1
18,17:1
18,26:2
18,27:1
18,29:1
18,30:1
18,37:1
18,43:1
19,1:1
19,2:1
19,5:1
19,6:1
19,7:1
19,11:1
19,12:1
19,13:1
19,15:1
19,16:1
19,17:1
19,26:2
19,27:1
19,29:1
19,30:1
19,37:1
19,43:1
20,1:1
20,2:1
20,5:1
20,6:1
20,7:1
20,11:1
20,12:1
20,13:1
20,15:1
20,16:1
20,17:1
20,26:2
20,27:1
20,29:1
20,30:1
20,33:1
20,34:1
20,35:1
20,36:2
20,37:1
20,43:1
21,26:1
21,36:1
22,26:1
22,36:1
23,1:1
23,2:1
23,5:1
23,6:1
23,7:1
23,11:1
23,12:1
23,13:1
23,15:1
23,16:1
23,17:1
23,21:1
23,22:1
23,26:2
23,27:1
23,28:1
23,29:1
23,30:1
23,37:1
23,43:1
24,1:1
24,2:1
24,5:1
24,6:1
24,7:1
24,11:1
24,12:1
24,13:1
24,15:1
24,16:1
24,17:1
24,21:1
24,22:1
24,26:2
24,27:1
24,28:1
24,29:1
24,30:1
24,37:1
24,43:1
25,1:1
25,2:1
25,5:1
25,6:1
25,7:1
25,11:1
25,12:1
25,13:1
25,15:1
25,16:1
25,17:1
25,21:1
25,22:1
25,27:1
25,28:1
25,29:1
25,30:1
25,33:1
25,34:1
25,35:1
25,36:2
25,37:1
25,43:1
27,26:1
28,26:1
28,36:1
29,26:1
29,36:1
29,38:1
29,40:1
30,26:1
30,36:1
30,38:1
30,40:1
31,1:1
31,2:1
31,5:1
31,6:1
31,7:1
31,11:1
31,12:1
31,13:1
31,15:1
31,16:1
31,17:1
31,21:1
31,22:1
31,26:2
31,27:1
31,28:1
31,29:1
31,30:1
31,33:1
31,34:1
31,35:1
31,36:2
31,37:1
31,38:2
31,40:2
31,43:1
32,1:1
32,2:1
32,5:1
32,6:1
32,7:1
32,11:1
32,12:1
32,13:1
32,15:1
32,16:1
32,17:1
32,21:1
32,22:1
32,26:2
32,27:1
32,28:1
32,29:1
32,30:1
32,33:1
32,34:1
32,35:1
32,36:2
32,37:1
32,38:2
32,40:2
32,43:1
33,26:1
34,26:1
34,36:1
35,26:1
35,36:1
35,38:1
37,26:1
37,36:1
37,38:1
37,40:1
37,41:1
37,42:1
37,44:1
37,45:1
39,1:1
39,2:1
39,5:1
39,6:1
39,7:1
39,11:1
39,12:1
39,13:1
39,15:1
39,16:1
39,17:1
39,21:1
39,22:1
39,26:2
39,27:1
39,28:1
39,29:1
39,30:1
39,33:1
39,34:1
39,35:1
39,36:2
39,37:1
39,38:2
39,40:2
39,43:1
43,26:1
43,36:1
43,38:1
43,40:1
43,41:1
43,42:1
43,44:1
43,45:1

<end>

<optimal SALBP-1 value>
8


<rand seed>
467321153

<Lower Bounds>
Lm1=8
Lms1=8
Lm2=1
Lm3=3
Lm4=8
Best=8

<Optimal Stations (Iterations: 10)>
10
